NAME 
ROWS
 N  OBJ
 L  R0      
 E  R1      
 E  R2      
 E  R3      
 E  R4      
 E  R5      
 E  R6      
 E  R7      
 E  R8      
 E  R9      
 E  R10     
 E  R11     
 E  R12     
 E  R13     
 E  R14     
 E  R15     
 E  R16     
 E  R17     
 E  R18     
 E  R19     
 E  R20     
 E  R21     
 E  R22     
 E  R23     
 E  R24     
 E  R25     
 E  R26     
 E  R27     
 E  R28     
 E  R29     
 E  R30     
COLUMNS
    MARKER    'MARKER'                 'INTORG'
    I0(3)     OBJ       -8
    I0(3)     R0        -55
    I0(3)     R1        1
    I0(3)     R30       1
    I1(3)     OBJ       -83
    I1(3)     R0        68
    I1(3)     R2        8
    I1(3)     R30       1
    I2(3)     OBJ       78
    I2(3)     R0        -64
    I2(3)     R3        5
    I2(3)     R30       1
    I3(3)     OBJ       -127
    I3(3)     R0        -35
    I3(3)     R4        9
    I3(3)     R30       1
    I4(3)     OBJ       28
    I4(3)     R0        -142
    I4(3)     R5        17
    I4(3)     R30       1
    I5(3)     OBJ       88
    I5(3)     R0        -188
    I5(3)     R6        16
    I5(3)     R30       1
    I6(3)     OBJ       -8
    I6(3)     R0        -149
    I6(3)     R7        10
    I6(3)     R30       1
    I7(3)     OBJ       -164
    I7(3)     R0        -47
    I7(3)     R8        16
    I7(3)     R30       1
    I8(3)     OBJ       -24
    I8(3)     R0        63
    I8(3)     R9        7
    I8(3)     R30       1
    I9(3)     OBJ       -199
    I9(3)     R0        -18
    I9(3)     R10       10
    I9(3)     R30       1
    I10(3)    OBJ       103
    I10(3)    R0        -127
    I10(3)    R11       5
    I10(3)    R30       1
    I11(3)    OBJ       1
    I11(3)    R0        -198
    I11(3)    R12       8
    I11(3)    R30       1
    I12(3)    OBJ       -43
    I12(3)    R0        141
    I12(3)    R13       15
    I12(3)    R30       1
    I13(3)    OBJ       71
    I13(3)    R0        126
    I13(3)    R14       18
    I13(3)    R30       1
    I14(3)    OBJ       86
    I14(3)    R0        175
    I14(3)    R15       2
    I14(3)    R30       1
    I15(3)    OBJ       49
    I15(3)    R0        56
    I15(3)    R16       -1
    I15(3)    R30       1
    I16(3)    OBJ       75
    I16(3)    R0        -54
    I16(3)    R17       11
    I16(3)    R30       1
    I17(3)    OBJ       -172
    I17(3)    R0        38
    I17(3)    R18       18
    I17(3)    R30       1
    I18(3)    OBJ       -169
    I18(3)    R0        -18
    I18(3)    R19       12
    I18(3)    R30       1
    I19(3)    OBJ       115
    I19(3)    R0        180
    I19(3)    R20       -1
    I19(3)    R30       1
    I20(3)    OBJ       81
    I20(3)    R0        116
    I20(3)    R21       11
    I20(3)    R30       1
    I21(3)    OBJ       150
    I21(3)    R0        118
    I21(3)    R22       2
    I21(3)    R30       1
    I22(2)    OBJ       12
    I22(2)    R0        150
    I22(2)    R30       1
    I23(3)    OBJ       -146
    I23(3)    R0        -117
    I23(3)    R24       14
    I23(3)    R30       1
    I24(3)    OBJ       -178
    I24(3)    R0        108
    I24(3)    R25       7
    I24(3)    R30       1
    I25(3)    OBJ       81
    I25(3)    R0        -93
    I25(3)    R26       19
    I25(3)    R30       1
    I26(3)    OBJ       -180
    I26(3)    R0        -183
    I26(3)    R27       8
    I26(3)    R30       1
    I27(3)    OBJ       66
    I27(3)    R0        -176
    I27(3)    R28       -1
    I27(3)    R30       1
    MARKER    'MARKER'                 'INTEND'
    C28(30)   OBJ       -8
    C28(30)   R0        7
    C28(30)   R1        -1
    C28(30)   R2        2
    C28(30)   R3        9
    C28(30)   R4        13
    C28(30)   R5        16
    C28(30)   R6        8
    C28(30)   R7        11
    C28(30)   R8        10
    C28(30)   R9        6
    C28(30)   R10       19
    C28(30)   R11       12
    C28(30)   R12       6
    C28(30)   R13       2
    C28(30)   R14       6
    C28(30)   R15       8
    C28(30)   R16       17
    C28(30)   R17       17
    C28(30)   R18       1
    C28(30)   R19       5
    C28(30)   R20       14
    C28(30)   R21       5
    C28(30)   R22       8
    C28(30)   R23       4
    C28(30)   R24       13
    C28(30)   R25       11
    C28(30)   R26       16
    C28(30)   R27       16
    C28(30)   R28       13
    C28(30)   R29       15
    C29(30)   OBJ       7
    C29(30)   R0        6
    C29(30)   R1        9
    C29(30)   R2        15
    C29(30)   R3        17
    C29(30)   R4        2
    C29(30)   R5        15
    C29(30)   R6        1
    C29(30)   R7        13
    C29(30)   R8        8
    C29(30)   R9        3
    C29(30)   R10       4
    C29(30)   R11       18
    C29(30)   R12       18
    C29(30)   R13       5
    C29(30)   R14       11
    C29(30)   R15       6
    C29(30)   R16       -1
    C29(30)   R17       2
    C29(30)   R18       18
    C29(30)   R19       1
    C29(30)   R20       9
    C29(30)   R21       2
    C29(30)   R22       6
    C29(30)   R23       7
    C29(30)   R24       19
    C29(30)   R25       11
    C29(30)   R26       18
    C29(30)   R27       14
    C29(30)   R28       12
    C29(30)   R29       11
    C30(1)    R1        1
    C31(1)    R2        1
    C32(1)    R3        1
    C33(1)    R4        1
    C34(1)    R5        1
    C35(1)    R6        1
    C36(1)    R7        1
    C37(1)    R8        1
    C38(1)    R9        1
    C39(1)    R10       1
    C40(1)    R11       1
    C41(1)    R12       1
    C42(1)    R13       1
    C43(1)    R14       1
    C44(1)    R15       1
    C45(1)    R16       1
    C46(1)    R17       1
    C47(1)    R18       1
    C48(1)    R19       1
    C49(1)    R20       1
    C50(1)    R21       1
    C51(1)    R22       1
    C52(1)    R23       1
    C53(1)    R24       1
    C54(1)    R25       1
    C55(1)    R26       1
    C56(1)    R27       1
    C57(1)    R28       1
    C58(1)    R29       1
    C59(1)    R30       1
RHS
    RHS1      R0        -1.7923076923076923e+02
    RHS1      R1        83
    RHS1      R2        79
    RHS1      R3        52
    RHS1      R4        55
    RHS1      R5        76
    RHS1      R6        85
    RHS1      R7        89
    RHS1      R8        85
    RHS1      R9        97
    RHS1      R10       95
    RHS1      R11       73
    RHS1      R12       78
    RHS1      R13       65
    RHS1      R14       53
    RHS1      R15       71
    RHS1      R16       97
    RHS1      R17       87
    RHS1      R18       60
    RHS1      R19       70
    RHS1      R20       83
    RHS1      R21       59
    RHS1      R22       98
    RHS1      R23       95
    RHS1      R24       88
    RHS1      R25       73
    RHS1      R26       75
    RHS1      R27       66
    RHS1      R28       69
    RHS1      R29       70
    RHS1      R30       9
BOUNDS
 UP BND1      I0(3)     1
 UP BND1      I1(3)     1
 UP BND1      I2(3)     1
 UP BND1      I3(3)     1
 UP BND1      I4(3)     1
 UP BND1      I5(3)     1
 UP BND1      I6(3)     1
 UP BND1      I7(3)     1
 UP BND1      I8(3)     1
 UP BND1      I9(3)     1
 UP BND1      I10(3)    1
 UP BND1      I11(3)    1
 UP BND1      I12(3)    1
 UP BND1      I13(3)    1
 UP BND1      I14(3)    1
 UP BND1      I15(3)    1
 UP BND1      I16(3)    1
 UP BND1      I17(3)    1
 UP BND1      I18(3)    1
 UP BND1      I19(3)    1
 UP BND1      I20(3)    1
 UP BND1      I21(3)    1
 UP BND1      I22(2)    1
 UP BND1      I23(3)    1
 UP BND1      I24(3)    1
 UP BND1      I25(3)    1
 UP BND1      I26(3)    1
 UP BND1      I27(3)    1
ENDATA
